n_res = 4;
rc = [ 0, 0, 0, 0 ];
n_tasks = 30;
d = [ 9, 2, 7, 4, 7, 6, 3, 6, 7, 7, 3, 9, 6, 5, 7, 6, 6, 4, 6, 5, 6, 7, 2, 6, 1, 2, 9, 1, 9, 7 ];
rr = [| 0, 0, 0, 0, 0, 0, 0, 0, 0, 0, 0, 0, 0, 0, 0, 0, 0, 0, 0, 0, 0, 0, 0, 0, 0, 0, 0, 0, 0, 0
      | 0, 0, 0, 0, 0, 0, 0, 0, 0, 0, 0, 0, 0, 0, 0, 0, 0, 0, 0, 0, 0, 0, 0, 0, 0, 0, 0, 0, 0, 0
      | 0, 0, 0, 0, 0, 0, 0, 0, 0, 0, 0, 0, 0, 0, 0, 0, 0, 0, 0, 0, 0, 0, 0, 0, 0, 0, 0, 0, 0, 0
      | 0, 0, 0, 0, 0, 0, 0, 0, 0, 0, 0, 0, 0, 0, 0, 0, 0, 0, 0, 0, 0, 0, 0, 0, 0, 0, 0, 0, 0, 0 |];
suc = [ { 5, 6, 14 },
       { 4 },
       { 7 },
       { 26 },
       { 8, 12, 13 },
       { 15 },
       { 15 },
       { 9, 19, 29 },
       { 10, 15, 21 },
       { 11, 18 },
       { 16, 23, 25 },
       { 17, 28 },
       { 30 },
       { 19, 22, 24 },
       { 20 },
       { 30 },
       { 18 },
       { 20 },
       { 26 },
       { 24 },
       { 22 },
       { 25 },
       { 26 },
       { 27 },
       { 27, 28 },
       { 27 },
       { 30 },
       {  },
       {  },
       {  } ];
